myproject/instances/20nodes/rnd34_20.tsp
NAME : rnd34_20.tsp
TYPE : TSP
DIMENSION : 20
EDGE_WEIGHT_TYPE : EUC_2D
NODE_COORD_SECTION
1 403 780
2 173 383
3 155 426
4 405 582
5 924 323
6 313 915
7 323 962
8 505 142
9 562 250
10 776 731
11 891 842
12 788 277
13 557 799
14 572 385
15 181 647
16 860 732
17 294 274
18 323 834
19 394 391
20 867 257
