myproject/instances/20nodes/rnd34_20.opt.tour
NAME : rnd34_20.tsp.tsp.optbc.tour
TYPE : TOUR
DIMENSION : 20
TOUR_SECTION
1
10
16
14
3
20
11
6
15
8
7
5
18
12
17
2
4
19
13
9
-1